\ENCODING=ISO-8859-1
\Problem name: MDHFVRP

Minimize
 obj: 46999 X(1,2,1,4) + 93998 X(1,2,2,4) + 4840 X(1,3,1,4) + 9680 X(1,3,2,4)
      + 14141 X(1,4,1,4) + 28282 X(1,4,2,4) + 47264 X(2,1,1,4)
      + 94528 X(2,1,2,4) + 44965 X(2,3,1,4) + 89930 X(2,3,2,4)
      + 47144 X(2,4,1,4) + 94288 X(2,4,2,4) + 3812 X(3,1,1,4) + 7624 X(3,1,2,4)
      + 45667 X(3,2,1,4) + 91334 X(3,2,2,4) + 12296 X(3,4,1,4)
      + 24592 X(3,4,2,4) + 24828 X(4,1,1,4) + 49626 X(4,1,2,4)
      + 25739 X(4,2,1,4) + 51448 X(4,2,2,4) + 22529 X(4,3,1,4)
      + 45028 X(4,3,2,4)
Subject To
 c2_1:        X(1,1,1,4) + X(1,1,2,4) + X(2,1,1,4) + X(2,1,2,4) + X(3,1,1,4)
              + X(3,1,2,4) + X(4,1,1,4) + X(4,1,2,4)  = 1
 c2_2:        X(1,2,1,4) + X(1,2,2,4) + X(2,2,1,4) + X(2,2,2,4) + X(3,2,1,4)
              + X(3,2,2,4) + X(4,2,1,4) + X(4,2,2,4)  = 1
 c2_3:        X(1,3,1,4) + X(1,3,2,4) + X(2,3,1,4) + X(2,3,2,4) + X(3,3,1,4)
              + X(3,3,2,4) + X(4,3,1,4) + X(4,3,2,4)  = 1
 c3_1:        X(1,1,1,4) + X(1,1,2,4) + X(1,2,1,4) + X(1,2,2,4) + X(1,3,1,4)
              + X(1,3,2,4) + X(1,4,1,4) + X(1,4,2,4)  = 1
 c3_2:        X(2,1,1,4) + X(2,1,2,4) + X(2,2,1,4) + X(2,2,2,4) + X(2,3,1,4)
              + X(2,3,2,4) + X(2,4,1,4) + X(2,4,2,4)  = 1
 c3_3:        X(3,1,1,4) + X(3,1,2,4) + X(3,2,1,4) + X(3,2,2,4) + X(3,3,1,4)
              + X(3,3,2,4) + X(3,4,1,4) + X(3,4,2,4)  = 1
 c4_1_1_4:    - X(1,2,1,4) - X(1,3,1,4) - X(1,4,1,4) + X(2,1,1,4) + X(3,1,1,4)
              + X(4,1,1,4)  = 0
 c4_1_2_4:    X(1,2,1,4) - X(2,1,1,4) - X(2,3,1,4) - X(2,4,1,4) + X(3,2,1,4)
              + X(4,2,1,4)  = 0
 c4_1_3_4:    X(1,3,1,4) + X(2,3,1,4) - X(3,1,1,4) - X(3,2,1,4) - X(3,4,1,4)
              + X(4,3,1,4)  = 0
 c4_1_4_4:    X(1,4,1,4) + X(2,4,1,4) + X(3,4,1,4) - X(4,1,1,4) - X(4,2,1,4)
              - X(4,3,1,4)  = 0
 c4_2_1_4:    - X(1,2,2,4) - X(1,3,2,4) - X(1,4,2,4) + X(2,1,2,4) + X(3,1,2,4)
              + X(4,1,2,4)  = 0
 c4_2_2_4:    X(1,2,2,4) - X(2,1,2,4) - X(2,3,2,4) - X(2,4,2,4) + X(3,2,2,4)
              + X(4,2,2,4)  = 0
 c4_2_3_4:    X(1,3,2,4) + X(2,3,2,4) - X(3,1,2,4) - X(3,2,2,4) - X(3,4,2,4)
              + X(4,3,2,4)  = 0
 c4_2_4_4:    X(1,4,2,4) + X(2,4,2,4) + X(3,4,2,4) - X(4,1,2,4) - X(4,2,2,4)
              - X(4,3,2,4)  = 0
 c5:          f(4,1) + f(4,2) + f(4,3)  = 6
 c6_1:        - f(1,2) - f(1,3) - f(1,4) + f(2,1) + f(3,1) + f(4,1)  = 2
 c6_2:        f(1,2) - f(2,1) - f(2,3) - f(2,4) + f(3,2) + f(4,2)  = 2
 c6_3:        f(1,3) + f(2,3) - f(3,1) - f(3,2) - f(3,4) + f(4,3)  = 2
 c7_1_1:      8 X(1,1,1,4) + 20 X(1,1,2,4) - f(1,1) >= 0
 c7_1_2:      8 X(1,2,1,4) + 20 X(1,2,2,4) - f(1,2) >= 0
 c7_1_3:      8 X(1,3,1,4) + 20 X(1,3,2,4) - f(1,3) >= 0
 c7_2_1:      8 X(2,1,1,4) + 20 X(2,1,2,4) - f(2,1) >= 0
 c7_2_2:      8 X(2,2,1,4) + 20 X(2,2,2,4) - f(2,2) >= 0
 c7_2_3:      8 X(2,3,1,4) + 20 X(2,3,2,4) - f(2,3) >= 0
 c7_3_1:      8 X(3,1,1,4) + 20 X(3,1,2,4) - f(3,1) >= 0
 c7_3_2:      8 X(3,2,1,4) + 20 X(3,2,2,4) - f(3,2) >= 0
 c7_3_3:      8 X(3,3,1,4) + 20 X(3,3,2,4) - f(3,3) >= 0
 c7_4_1:      8 X(4,1,1,4) + 20 X(4,1,2,4) - f(4,1) >= 0
 c7_4_2:      8 X(4,2,1,4) + 20 X(4,2,2,4) - f(4,2) >= 0
 c7_4_3:      8 X(4,3,1,4) + 20 X(4,3,2,4) - f(4,3) >= 0
 c11_1_1:     f(1,1) >= 0
 c11_1_2:     f(1,2) >= 0
 c11_1_3:     f(1,3) >= 0
 c11_1_4:     f(1,4) >= 0
 c11_2_1:     f(2,1) >= 0
 c11_2_2:     f(2,2) >= 0
 c11_2_3:     f(2,3) >= 0
 c11_2_4:     f(2,4) >= 0
 c11_3_1:     f(3,1) >= 0
 c11_3_2:     f(3,2) >= 0
 c11_3_3:     f(3,3) >= 0
 c11_3_4:     f(3,4) >= 0
 c11_4_1:     f(4,1) >= 0
 c11_4_2:     f(4,2) >= 0
 c11_4_3:     f(4,3) >= 0
 c11_4_4:     f(4,4) >= 0
 c12_1_1:     6 X(1,1,1,4) + 18 X(1,1,2,4) - f(1,1) >= 0
 c12_1_2:     6 X(1,2,1,4) + 18 X(1,2,2,4) - f(1,2) >= 0
 c12_1_3:     6 X(1,3,1,4) + 18 X(1,3,2,4) - f(1,3) >= 0
 c12_2_1:     6 X(2,1,1,4) + 18 X(2,1,2,4) - f(2,1) >= 0
 c12_2_2:     6 X(2,2,1,4) + 18 X(2,2,2,4) - f(2,2) >= 0
 c12_2_3:     6 X(2,3,1,4) + 18 X(2,3,2,4) - f(2,3) >= 0
 c12_3_1:     6 X(3,1,1,4) + 18 X(3,1,2,4) - f(3,1) >= 0
 c12_3_2:     6 X(3,2,1,4) + 18 X(3,2,2,4) - f(3,2) >= 0
 c12_3_3:     6 X(3,3,1,4) + 18 X(3,3,2,4) - f(3,3) >= 0
 c12_4_1:     8 X(4,1,1,4) + 20 X(4,1,2,4) - f(4,1) >= 0
 c12_4_2:     8 X(4,2,1,4) + 20 X(4,2,2,4) - f(4,2) >= 0
 c12_4_3:     8 X(4,3,1,4) + 20 X(4,3,2,4) - f(4,3) >= 0
 c13_1_1:     - 2 X(1,1,1,4) - 2 X(1,1,2,4) + f(1,1) >= 0
 c13_1_2:     - 2 X(1,2,1,4) - 2 X(1,2,2,4) + f(1,2) >= 0
 c13_1_3:     - 2 X(1,3,1,4) - 2 X(1,3,2,4) + f(1,3) >= 0
 c13_2_1:     - 2 X(2,1,1,4) - 2 X(2,1,2,4) + f(2,1) >= 0
 c13_2_2:     - 2 X(2,2,1,4) - 2 X(2,2,2,4) + f(2,2) >= 0
 c13_2_3:     - 2 X(2,3,1,4) - 2 X(2,3,2,4) + f(2,3) >= 0
 c13_3_1:     - 2 X(3,1,1,4) - 2 X(3,1,2,4) + f(3,1) >= 0
 c13_3_2:     - 2 X(3,2,1,4) - 2 X(3,2,2,4) + f(3,2) >= 0
 c13_3_3:     - 2 X(3,3,1,4) - 2 X(3,3,2,4) + f(3,3) >= 0
 c14_1_4:     f(1,4)  = 0
 c14_2_4:     f(2,4)  = 0
 c14_3_4:     f(3,4)  = 0
 c15_4_4:     f(4,4)  = 0
 c16_1:       f(1,1)  = 0
 c16_2:       f(2,2)  = 0
 c16_3:       f(3,3)  = 0
 c17_4_4_1_4: X(4,4,1,4)  = 0
 c17_4_4_2_4: X(4,4,2,4)  = 0
 c18_1_1_1_4: X(1,1,1,4)  = 0
 c18_1_1_2_4: X(1,1,2,4)  = 0
 c18_2_2_1_4: X(2,2,1,4)  = 0
 c18_2_2_2_4: X(2,2,2,4)  = 0
 c18_3_3_1_4: X(3,3,1,4)  = 0
 c18_3_3_2_4: X(3,3,2,4)  = 0
 c18_4_4_1_4: X(4,4,1,4)  = 0
 c18_4_4_2_4: X(4,4,2,4)  = 0
 c19_1_2:     - 99999999999 X(1,2,1,4) - 99999999999 X(1,2,2,4) - b(1) + b(2)
              >= -99999999286.4
 c19_1_3:     - 99999999999 X(1,3,1,4) - 99999999999 X(1,3,2,4) - b(1) + b(3)
              >= -99999999885.8
 c19_2_1:     - 99999999999 X(2,1,1,4) - 99999999999 X(2,1,2,4) + b(1) - b(2)
              >= -99999999225.4
 c19_2_3:     - 99999999999 X(2,3,1,4) - 99999999999 X(2,3,2,4) - b(2) + b(3)
              >= -99999999288.7
 c19_3_1:     - 99999999999 X(3,1,1,4) - 99999999999 X(3,1,2,4) + b(1) - b(3)
              >= -99999999885.8
 c19_3_2:     - 99999999999 X(3,2,1,4) - 99999999999 X(3,2,2,4) + b(2) - b(3)
              >= -99999999349.7
 c19_4_1:     - 99999999999 X(4,1,1,4) - 99999999999 X(4,1,2,4) + b(1) - b(4)
              >= -99999999690.6
 c19_4_2:     - 99999999999 X(4,2,1,4) - 99999999999 X(4,2,2,4) + b(2) - b(4)
              >= -99999999400.5
 c19_4_3:     - 99999999999 X(4,3,1,4) - 99999999999 X(4,3,2,4) + b(3) - b(4)
              >= -99999999753.9
 c20_1:       b(1) >= 600
 c20_2:       b(2) >= 400
 c20_3:       b(3) >= 460
 c20_4:       b(4) >= 0
 c21_1:       b(1) <= 1600
 c21_2:       b(2) <= 1500
 c21_3:       b(3) <= 900
 c21_4:       b(4) <= 10000
Bounds
 0 <= X(1,1,1,4) <= 1
 0 <= X(1,1,2,4) <= 1
 0 <= X(1,2,1,4) <= 1
 0 <= X(1,2,2,4) <= 1
 0 <= X(1,3,1,4) <= 1
 0 <= X(1,3,2,4) <= 1
 0 <= X(1,4,1,4) <= 1
 0 <= X(1,4,2,4) <= 1
 0 <= X(2,1,1,4) <= 1
 0 <= X(2,1,2,4) <= 1
 0 <= X(2,2,1,4) <= 1
 0 <= X(2,2,2,4) <= 1
 0 <= X(2,3,1,4) <= 1
 0 <= X(2,3,2,4) <= 1
 0 <= X(2,4,1,4) <= 1
 0 <= X(2,4,2,4) <= 1
 0 <= X(3,1,1,4) <= 1
 0 <= X(3,1,2,4) <= 1
 0 <= X(3,2,1,4) <= 1
 0 <= X(3,2,2,4) <= 1
 0 <= X(3,3,1,4) <= 1
 0 <= X(3,3,2,4) <= 1
 0 <= X(3,4,1,4) <= 1
 0 <= X(3,4,2,4) <= 1
 0 <= X(4,1,1,4) <= 1
 0 <= X(4,1,2,4) <= 1
 0 <= X(4,2,1,4) <= 1
 0 <= X(4,2,2,4) <= 1
 0 <= X(4,3,1,4) <= 1
 0 <= X(4,3,2,4) <= 1
 0 <= X(4,4,1,4) <= 1
 0 <= X(4,4,2,4) <= 1
 0 <= b(1) <= 99999
 0 <= b(2) <= 99999
 0 <= b(3) <= 99999
 0 <= b(4) <= 99999
 0 <= f(1,1) <= 20
 0 <= f(1,2) <= 20
 0 <= f(1,3) <= 20
 0 <= f(1,4) <= 20
 0 <= f(2,1) <= 20
 0 <= f(2,2) <= 20
 0 <= f(2,3) <= 20
 0 <= f(2,4) <= 20
 0 <= f(3,1) <= 20
 0 <= f(3,2) <= 20
 0 <= f(3,3) <= 20
 0 <= f(3,4) <= 20
 0 <= f(4,1) <= 20
 0 <= f(4,2) <= 20
 0 <= f(4,3) <= 20
 0 <= f(4,4) <= 20
Binaries
 X(1,1,1,4)  X(1,1,2,4)  X(1,2,1,4)  X(1,2,2,4)  X(1,3,1,4)  X(1,3,2,4) 
 X(1,4,1,4)  X(1,4,2,4)  X(2,1,1,4)  X(2,1,2,4)  X(2,2,1,4)  X(2,2,2,4) 
 X(2,3,1,4)  X(2,3,2,4)  X(2,4,1,4)  X(2,4,2,4)  X(3,1,1,4)  X(3,1,2,4) 
 X(3,2,1,4)  X(3,2,2,4)  X(3,3,1,4)  X(3,3,2,4)  X(3,4,1,4)  X(3,4,2,4) 
 X(4,1,1,4)  X(4,1,2,4)  X(4,2,1,4)  X(4,2,2,4)  X(4,3,1,4)  X(4,3,2,4) 
 X(4,4,1,4)  X(4,4,2,4) 
End
